Instances/eil10.tsp
NAME : eil101
COMMENT : 101-city problem (Christofides/Eilon) (Length 629)
TYPE : TSP
DIMENSION : 101
EDGE_WEIGHT_TYPE : EUC_2D
NODE_COORD_SECTION
1 41 49
2 35 17
3 55 45
4 55 20
5 15 30
6 25 30
7 20 50
8 10 43
9 55 60
10 30 60
EOF
