eil10.txt
############### GRAFO CARGADO #################
     1     2     3     4     5     6     7     8     9     10
1    999999999999    32.56    14.56    32.2    32.2    24.84    21.02    31.58    17.8    15.56    
2    32.56    999999999999    34.41    20.22    23.85    16.4    36.25    36.07    47.42    43.29    
3    14.56    34.41    999999999999    25.0    42.72    33.54    35.36    45.04    15.0    29.15    
4    32.2    20.22    25.0    999999999999    41.23    31.62    46.1    50.54    40.0    47.17    
5    32.2    23.85    42.72    41.23    999999999999    10.0    20.62    13.93    50.0    33.54    
6    24.84    16.4    33.54    31.62    10.0    999999999999    20.62    19.85    42.43    30.41    
7    21.02    36.25    35.36    46.1    20.62    20.62    999999999999    12.21    36.4    14.14    
8    31.58    36.07    45.04    50.54    13.93    19.85    12.21    999999999999    48.1    26.25    
9    17.8    47.42    15.0    40.0    50.0    42.43    36.4    48.1    999999999999    25.0    
10    15.56    43.29    29.15    47.17    33.54    30.41    14.14    26.25    25.0    999999999999    

################ SOLUCION INICIAL #################
Vertices:        [1, 3, 9, 10, 7, 8, 5, 6, 2, 4]
Aristas:         [(1,3,14.56), (3,9,15.0), (9,10,25.0), (10,7,14.14), (7,8,12.21), (8,5,13.93), (5,6,10.0), (6,2,16.4), (2,4,20.22)]
Costo asociado:  173.66000000000003
################################ 1 ####################################
Vertices:        [1, 5, 9, 10, 7, 8, 3, 6, 2, 4]
Aristas:         [(1,5,32.2), (5,9,50.0), (9,10,25.0), (10,7,14.14), (7,8,12.21), (8,3,45.04), (3,6,33.54), (6,2,16.4), (2,4,20.22)]
Costo asociado:  280.95
-+-+-+-+-+-+-+-+-+ Lista TABÚ -+-+-+-+-+-+-+-+-+
Lista Tabu: [(5,7), (9,7), (3,7), (8,6), (5,6), (5,6)]
################################ 2 ####################################
Vertices:        [1, 3, 9, 6, 7, 8, 5, 10, 2, 4]
Aristas:         [(1,3,14.56), (3,9,15.0), (9,6,42.43), (6,7,20.62), (7,8,12.21), (8,5,13.93), (5,10,33.54), (10,2,43.29), (2,4,20.22)]
Costo asociado:  248.0
-+-+-+-+-+-+-+-+-+ Lista TABÚ -+-+-+-+-+-+-+-+-+
Lista Tabu: [(5,6), (9,6), (3,6), (8,5), (5,5), (5,5), (2,7), (10,7), (4,6), (6,6)]
-+-+-+-+-+-+-+-+-+ Lista TABÚ -+-+-+-+-+-+-+-+-+
Lista Tabu: [(5,5), (9,5), (3,5), (8,4), (5,4), (5,4), (2,6), (10,6), (4,5), (6,5)]
-+-+-+-+-+-+-+-+-+ Lista TABÚ -+-+-+-+-+-+-+-+-+
Lista Tabu: [(5,4), (9,4), (3,4), (8,3), (5,3), (5,3), (2,5), (10,5), (4,4), (6,4)]
-+-+-+-+-+-+-+-+-+ Lista TABÚ -+-+-+-+-+-+-+-+-+
Lista Tabu: [(5,3), (9,3), (3,3), (8,2), (5,2), (5,2), (2,4), (10,4), (4,3), (6,3)]
-+-+-+-+-+-+-+-+-+ Lista TABÚ -+-+-+-+-+-+-+-+-+
Lista Tabu: [(5,2), (9,2), (3,2), (8,1), (5,1), (5,1), (2,3), (10,3), (4,2), (6,2)]
-+-+-+-+-+-+-+-+-+ Lista TABÚ -+-+-+-+-+-+-+-+-+
Lista Tabu: [(5,1), (9,1), (3,1), (2,2), (10,2), (4,1), (6,1)]
################################ 8 ####################################
Vertices:        [1, 3, 9, 10, 8, 7, 5, 6, 2, 4]
Aristas:         [(1,3,14.56), (3,9,15.0), (9,10,25.0), (10,8,26.25), (8,7,12.21), (7,5,20.62), (5,6,10.0), (6,2,16.4), (2,4,20.22)]
Costo asociado:  192.46000000000004
-+-+-+-+-+-+-+-+-+ Lista TABÚ -+-+-+-+-+-+-+-+-+
Lista Tabu: [(2,1), (10,1), (7,7), (8,6)]
################################ 9 ####################################
Vertices:        [1, 3, 9, 10, 7, 8, 6, 5, 2, 4]
Aristas:         [(1,3,14.56), (3,9,15.0), (9,10,25.0), (10,7,14.14), (7,8,12.21), (8,6,19.85), (6,5,10.0), (5,2,23.85), (2,4,20.22)]
Costo asociado:  187.02999999999997
-+-+-+-+-+-+-+-+-+ Lista TABÚ -+-+-+-+-+-+-+-+-+
Lista Tabu: [(7,6), (8,5), (9,7), (6,7), (3,6), (5,6)]
################################ 10 ####################################
Vertices:        [1, 3, 9, 2, 7, 8, 5, 6, 10, 4]
Aristas:         [(1,3,14.56), (3,9,15.0), (9,2,47.42), (2,7,36.25), (7,8,12.21), (8,5,13.93), (5,6,10.0), (6,10,30.41), (10,4,47.17)]
Costo asociado:  259.15
-+-+-+-+-+-+-+-+-+ Lista TABÚ -+-+-+-+-+-+-+-+-+
Lista Tabu: [(7,5), (8,4), (9,6), (6,6), (3,5), (5,5), (10,7), (2,6)]
-+-+-+-+-+-+-+-+-+ Lista TABÚ -+-+-+-+-+-+-+-+-+
Lista Tabu: [(7,4), (8,3), (9,5), (6,5), (3,4), (5,4), (10,6), (2,5)]
-+-+-+-+-+-+-+-+-+ Lista TABÚ -+-+-+-+-+-+-+-+-+
Lista Tabu: [(7,3), (8,2), (9,4), (6,4), (3,3), (5,3), (10,5), (2,4)]
-+-+-+-+-+-+-+-+-+ Lista TABÚ -+-+-+-+-+-+-+-+-+
Lista Tabu: [(7,2), (8,1), (9,3), (6,3), (3,2), (5,2), (10,4), (2,3)]
-+-+-+-+-+-+-+-+-+ Lista TABÚ -+-+-+-+-+-+-+-+-+
Lista Tabu: [(7,1), (9,2), (6,2), (3,1), (5,1), (10,3), (2,2)]
################################ 15 ####################################
Vertices:        [1, 3, 9, 10, 7, 4, 5, 6, 2, 8]
Aristas:         [(1,3,14.56), (3,9,15.0), (9,10,25.0), (10,7,14.14), (7,4,46.1), (4,5,41.23), (5,6,10.0), (6,2,16.4), (2,8,36.07)]
Costo asociado:  250.07999999999998
-+-+-+-+-+-+-+-+-+ Lista TABÚ -+-+-+-+-+-+-+-+-+
Lista Tabu: [(9,1), (6,1), (10,2), (2,1), (8,7), (4,6)]
################################ 16 ####################################
Vertices:        [1, 3, 9, 10, 7, 8, 5, 6, 2, 4]
Aristas:         [(1,3,14.56), (3,9,15.0), (9,10,25.0), (10,7,14.14), (7,8,12.21), (8,5,13.93), (5,6,10.0), (6,2,16.4), (2,4,20.22)]
Costo asociado:  173.66000000000003
-+-+-+-+-+-+-+-+-+ Lista TABÚ -+-+-+-+-+-+-+-+-+
Lista Tabu: [(10,1), (8,6), (4,5), (3,7), (3,6)]
################################ 17 ####################################
Vertices:        [1, 3, 9, 10, 7, 8, 6, 5, 2, 4]
Aristas:         [(1,3,14.56), (3,9,15.0), (9,10,25.0), (10,7,14.14), (7,8,12.21), (8,6,19.85), (6,5,10.0), (5,2,23.85), (2,4,20.22)]
Costo asociado:  187.02999999999997
-+-+-+-+-+-+-+-+-+ Lista TABÚ -+-+-+-+-+-+-+-+-+
Lista Tabu: [(8,5), (4,4), (3,6), (3,5), (2,7), (5,7), (9,6), (6,6)]
################################ 18 ####################################
Vertices:        [1, 3, 9, 10, 7, 8, 5, 6, 2, 4]
Aristas:         [(1,3,14.56), (3,9,15.0), (9,10,25.0), (10,7,14.14), (7,8,12.21), (8,5,13.93), (5,6,10.0), (6,2,16.4), (2,4,20.22)]
Costo asociado:  173.66000000000003
-+-+-+-+-+-+-+-+-+ Lista TABÚ -+-+-+-+-+-+-+-+-+
Lista Tabu: [(8,4), (4,3), (3,5), (3,4), (2,6), (5,6), (9,5), (6,5), (7,7), (7,6)]
-+-+-+-+-+-+-+-+-+ Lista TABÚ -+-+-+-+-+-+-+-+-+
Lista Tabu: [(8,3), (4,2), (3,4), (3,3), (2,5), (5,5), (9,4), (6,4), (7,6), (7,5)]
-+-+-+-+-+-+-+-+-+ Lista TABÚ -+-+-+-+-+-+-+-+-+
Lista Tabu: [(8,2), (4,1), (3,3), (3,2), (2,4), (5,4), (9,3), (6,3), (7,5), (7,4)]
-+-+-+-+-+-+-+-+-+ Lista TABÚ -+-+-+-+-+-+-+-+-+
Lista Tabu: [(8,1), (3,2), (3,1), (2,3), (5,3), (9,2), (6,2), (7,4), (7,3)]
################################ 22 ####################################
Vertices:        [1, 3, 9, 4, 7, 8, 5, 6, 2, 10]
Aristas:         [(1,3,14.56), (3,9,15.0), (9,4,40.0), (4,7,46.1), (7,8,12.21), (8,5,13.93), (5,6,10.0), (6,2,16.4), (2,10,43.29)]
Costo asociado:  227.05
-+-+-+-+-+-+-+-+-+ Lista TABÚ -+-+-+-+-+-+-+-+-+
Lista Tabu: [(3,1), (2,2), (5,2), (9,1), (6,1), (7,3), (7,2), (10,7), (4,6)]
-+-+-+-+-+-+-+-+-+ Lista TABÚ -+-+-+-+-+-+-+-+-+
Lista Tabu: [(2,1), (5,1), (7,2), (7,1), (10,6), (4,5)]
################################ 24 ####################################
Vertices:        [1, 6, 9, 10, 7, 8, 5, 3, 2, 4]
Aristas:         [(1,6,24.84), (6,9,42.43), (9,10,25.0), (10,7,14.14), (7,8,12.21), (8,5,13.93), (5,3,42.72), (3,2,34.41), (2,4,20.22)]
Costo asociado:  262.1
-+-+-+-+-+-+-+-+-+ Lista TABÚ -+-+-+-+-+-+-+-+-+
Lista Tabu: [(7,1), (10,5), (4,4), (9,7), (6,7), (6,6), (3,6)]
################################ 25 ####################################
Vertices:        [1, 3, 9, 10, 7, 8, 5, 6, 2, 4]
Aristas:         [(1,3,14.56), (3,9,15.0), (9,10,25.0), (10,7,14.14), (7,8,12.21), (8,5,13.93), (5,6,10.0), (6,2,16.4), (2,4,20.22)]
Costo asociado:  173.66000000000003
-+-+-+-+-+-+-+-+-+ Lista TABÚ -+-+-+-+-+-+-+-+-+
Lista Tabu: [(10,4), (4,3), (9,6), (6,6), (6,5), (3,5), (2,7), (2,6)]
################################ 26 ####################################
Vertices:        [1, 3, 9, 10, 7, 5, 8, 6, 2, 4]
Aristas:         [(1,3,14.56), (3,9,15.0), (9,10,25.0), (10,7,14.14), (7,5,20.62), (5,8,13.93), (8,6,19.85), (6,2,16.4), (2,4,20.22)]
Costo asociado:  191.92000000000002
-+-+-+-+-+-+-+-+-+ Lista TABÚ -+-+-+-+-+-+-+-+-+
Lista Tabu: [(10,3), (4,2), (9,5), (6,5), (6,4), (3,4), (2,6), (2,5), (5,7), (8,6)]
-+-+-+-+-+-+-+-+-+ Lista TABÚ -+-+-+-+-+-+-+-+-+
Lista Tabu: [(10,2), (4,1), (9,4), (6,4), (6,3), (3,3), (2,5), (2,4), (5,6), (8,5)]
-+-+-+-+-+-+-+-+-+ Lista TABÚ -+-+-+-+-+-+-+-+-+
Lista Tabu: [(10,1), (9,3), (6,3), (6,2), (3,2), (2,4), (2,3), (5,5), (8,4)]
################################ 29 ####################################
Vertices:        [1, 3, 9, 10, 7, 8, 5, 6, 2, 4]
Aristas:         [(1,3,14.56), (3,9,15.0), (9,10,25.0), (10,7,14.14), (7,8,12.21), (8,5,13.93), (5,6,10.0), (6,2,16.4), (2,4,20.22)]
Costo asociado:  173.66000000000003
-+-+-+-+-+-+-+-+-+ Lista TABÚ -+-+-+-+-+-+-+-+-+
Lista Tabu: [(9,2), (6,2), (6,1), (3,1), (2,3), (2,2), (5,4), (8,3), (7,7), (7,6)]
################################ 30 ####################################
Vertices:        [1, 3, 9, 4, 7, 8, 5, 6, 2, 10]
Aristas:         [(1,3,14.56), (3,9,15.0), (9,4,40.0), (4,7,46.1), (7,8,12.21), (8,5,13.93), (5,6,10.0), (6,2,16.4), (2,10,43.29)]
Costo asociado:  227.05
-+-+-+-+-+-+-+-+-+ Lista TABÚ -+-+-+-+-+-+-+-+-+
Lista Tabu: [(9,1), (6,1), (2,2), (2,1), (5,3), (8,2), (7,6), (7,5), (10,7), (4,6)]
-+-+-+-+-+-+-+-+-+ Lista TABÚ -+-+-+-+-+-+-+-+-+
Lista Tabu: [(2,1), (5,2), (8,1), (7,5), (7,4), (10,6), (4,5)]
################################ 32 ####################################
Vertices:        [1, 3, 6, 10, 7, 8, 5, 9, 2, 4]
Aristas:         [(1,3,14.56), (3,6,33.54), (6,10,30.41), (10,7,14.14), (7,8,12.21), (8,5,13.93), (5,9,50.0), (9,2,47.42), (2,4,20.22)]
Costo asociado:  268.63000000000005
-+-+-+-+-+-+-+-+-+ Lista TABÚ -+-+-+-+-+-+-+-+-+
Lista Tabu: [(5,1), (7,4), (7,3), (10,5), (4,4), (9,7), (6,6)]
################################ 33 ####################################
Vertices:        [1, 8, 9, 10, 7, 3, 5, 6, 2, 4]
Aristas:         [(1,8,31.58), (8,9,48.1), (9,10,25.0), (10,7,14.14), (7,3,35.36), (3,5,42.72), (5,6,10.0), (6,2,16.4), (2,4,20.22)]
Costo asociado:  275.72
-+-+-+-+-+-+-+-+-+ Lista TABÚ -+-+-+-+-+-+-+-+-+
Lista Tabu: [(7,3), (7,2), (10,4), (4,3), (9,6), (6,5), (3,7), (8,6)]
################################ 34 ####################################
Vertices:        [1, 3, 9, 10, 7, 8, 5, 6, 2, 4]
Aristas:         [(1,3,14.56), (3,9,15.0), (9,10,25.0), (10,7,14.14), (7,8,12.21), (8,5,13.93), (5,6,10.0), (6,2,16.4), (2,4,20.22)]
Costo asociado:  173.66000000000003
-+-+-+-+-+-+-+-+-+ Lista TABÚ -+-+-+-+-+-+-+-+-+
Lista Tabu: [(7,2), (7,1), (10,3), (4,2), (9,5), (6,4), (3,6), (8,5), (5,7), (5,6)]
-+-+-+-+-+-+-+-+-+ Lista TABÚ -+-+-+-+-+-+-+-+-+
Lista Tabu: [(7,1), (10,2), (4,1), (9,4), (6,3), (3,5), (8,4), (5,6), (5,5)]
-+-+-+-+-+-+-+-+-+ Lista TABÚ -+-+-+-+-+-+-+-+-+
Lista Tabu: [(10,1), (9,3), (6,2), (3,4), (8,3), (5,5), (5,4)]
################################ 37 ####################################
Vertices:        [1, 3, 9, 10, 2, 8, 5, 6, 7, 4]
Aristas:         [(1,3,14.56), (3,9,15.0), (9,10,25.0), (10,2,43.29), (2,8,36.07), (8,5,13.93), (5,6,10.0), (6,7,20.62), (7,4,46.1)]
Costo asociado:  256.77
-+-+-+-+-+-+-+-+-+ Lista TABÚ -+-+-+-+-+-+-+-+-+
Lista Tabu: [(9,2), (6,1), (3,3), (8,2), (5,4), (5,3), (2,7), (7,6)]
################################ 38 ####################################
Vertices:        [1, 3, 9, 4, 7, 8, 5, 6, 2, 10]
Aristas:         [(1,3,14.56), (3,9,15.0), (9,4,40.0), (4,7,46.1), (7,8,12.21), (8,5,13.93), (5,6,10.0), (6,2,16.4), (2,10,43.29)]
Costo asociado:  227.05
-+-+-+-+-+-+-+-+-+ Lista TABÚ -+-+-+-+-+-+-+-+-+
Lista Tabu: [(9,1), (3,2), (8,1), (5,3), (5,2), (2,6), (7,5), (10,7), (4,6)]
-+-+-+-+-+-+-+-+-+ Lista TABÚ -+-+-+-+-+-+-+-+-+
Lista Tabu: [(3,1), (5,2), (5,1), (2,5), (7,4), (10,6), (4,5)]
################################ 40 ####################################
Vertices:        [1, 3, 9, 10, 7, 8, 5, 6, 2, 4]
Aristas:         [(1,3,14.56), (3,9,15.0), (9,10,25.0), (10,7,14.14), (7,8,12.21), (8,5,13.93), (5,6,10.0), (6,2,16.4), (2,4,20.22)]
Costo asociado:  173.66000000000003
-+-+-+-+-+-+-+-+-+ Lista TABÚ -+-+-+-+-+-+-+-+-+
Lista Tabu: [(5,1), (2,4), (7,3), (10,5), (4,4), (8,7), (8,6)]
################################ 41 ####################################
Vertices:        [1, 3, 9, 10, 7, 8, 5, 6, 2, 4]
Aristas:         [(1,3,14.56), (3,9,15.0), (9,10,25.0), (10,7,14.14), (7,8,12.21), (8,5,13.93), (5,6,10.0), (6,2,16.4), (2,4,20.22)]
Costo asociado:  173.66000000000003
-+-+-+-+-+-+-+-+-+ Lista TABÚ -+-+-+-+-+-+-+-+-+
Lista Tabu: [(2,3), (7,2), (10,4), (4,3), (8,6), (8,5), (6,7), (6,6)]
################################ 42 ####################################
Vertices:        [1, 3, 5, 10, 7, 8, 9, 6, 2, 4]
Aristas:         [(1,3,14.56), (3,5,42.72), (5,10,33.54), (10,7,14.14), (7,8,12.21), (8,9,48.1), (9,6,42.43), (6,2,16.4), (2,4,20.22)]
Costo asociado:  276.52
-+-+-+-+-+-+-+-+-+ Lista TABÚ -+-+-+-+-+-+-+-+-+
Lista Tabu: [(2,2), (7,1), (10,3), (4,2), (8,5), (8,4), (6,6), (6,5), (9,7), (5,6)]
-+-+-+-+-+-+-+-+-+ Lista TABÚ -+-+-+-+-+-+-+-+-+
Lista Tabu: [(2,1), (10,2), (4,1), (8,4), (8,3), (6,5), (6,4), (9,6), (5,5)]
################################ 44 ####################################
Vertices:        [1, 3, 9, 10, 7, 8, 5, 6, 2, 4]
Aristas:         [(1,3,14.56), (3,9,15.0), (9,10,25.0), (10,7,14.14), (7,8,12.21), (8,5,13.93), (5,6,10.0), (6,2,16.4), (2,4,20.22)]
Costo asociado:  173.66000000000003
-+-+-+-+-+-+-+-+-+ Lista TABÚ -+-+-+-+-+-+-+-+-+
Lista Tabu: [(10,1), (8,3), (8,2), (6,4), (6,3), (9,5), (5,4), (3,7), (3,6)]
################################ 45 ####################################
Vertices:        [1, 3, 9, 10, 4, 8, 5, 6, 2, 7]
Aristas:         [(1,3,14.56), (3,9,15.0), (9,10,25.0), (10,4,47.17), (4,8,50.54), (8,5,13.93), (5,6,10.0), (6,2,16.4), (2,7,36.25)]
Costo asociado:  249.87000000000003
-+-+-+-+-+-+-+-+-+ Lista TABÚ -+-+-+-+-+-+-+-+-+
Lista Tabu: [(8,2), (8,1), (6,3), (6,2), (9,4), (5,3), (3,6), (3,5), (4,7), (7,6)]
################################ 46 ####################################
Vertices:        [1, 3, 9, 2, 7, 8, 5, 6, 10, 4]
Aristas:         [(1,3,14.56), (3,9,15.0), (9,2,47.42), (2,7,36.25), (7,8,12.21), (8,5,13.93), (5,6,10.0), (6,10,30.41), (10,4,47.17)]
Costo asociado:  259.15
-+-+-+-+-+-+-+-+-+ Lista TABÚ -+-+-+-+-+-+-+-+-+
Lista Tabu: [(8,1), (6,2), (6,1), (9,3), (5,2), (3,5), (3,4), (4,6), (7,5), (2,7), (10,6)]
-+-+-+-+-+-+-+-+-+ Lista TABÚ -+-+-+-+-+-+-+-+-+
Lista Tabu: [(6,1), (9,2), (5,1), (3,4), (3,3), (4,5), (7,4), (2,6), (10,5)]
-+-+-+-+-+-+-+-+-+ Lista TABÚ -+-+-+-+-+-+-+-+-+
Lista Tabu: [(9,1), (3,3), (3,2), (4,4), (7,3), (2,5), (10,4)]
################################ 49 ####################################
Vertices:        [1, 3, 9, 10, 7, 5, 8, 6, 2, 4]
Aristas:         [(1,3,14.56), (3,9,15.0), (9,10,25.0), (10,7,14.14), (7,5,20.62), (5,8,13.93), (8,6,19.85), (6,2,16.4), (2,4,20.22)]
Costo asociado:  191.92000000000002
-+-+-+-+-+-+-+-+-+ Lista TABÚ -+-+-+-+-+-+-+-+-+
Lista Tabu: [(3,2), (3,1), (4,3), (7,2), (2,4), (10,3), (5,7), (8,6)]
################################ 50 ####################################
Vertices:        [1, 3, 9, 10, 7, 8, 5, 6, 2, 4]
Aristas:         [(1,3,14.56), (3,9,15.0), (9,10,25.0), (10,7,14.14), (7,8,12.21), (8,5,13.93), (5,6,10.0), (6,2,16.4), (2,4,20.22)]
Costo asociado:  173.66000000000003
-+-+-+-+-+-+-+-+-+ Lista TABÚ -+-+-+-+-+-+-+-+-+
Lista Tabu: [(3,1), (4,2), (7,1), (2,3), (10,2), (5,6), (8,5), (6,7), (6,6)]
-+-+-+-+-+-+-+-+-+ Lista TABÚ -+-+-+-+-+-+-+-+-+
Lista Tabu: [(4,1), (2,2), (10,1), (5,5), (8,4), (6,6), (6,5)]
################################ 52 ####################################
Vertices:        [1, 3, 7, 10, 9, 8, 5, 6, 2, 4]
Aristas:         [(1,3,14.56), (3,7,35.36), (7,10,14.14), (10,9,25.0), (9,8,48.1), (8,5,13.93), (5,6,10.0), (6,2,16.4), (2,4,20.22)]
Costo asociado:  229.91000000000003
-+-+-+-+-+-+-+-+-+ Lista TABÚ -+-+-+-+-+-+-+-+-+
Lista Tabu: [(2,1), (5,4), (8,3), (6,5), (6,4), (9,7), (7,6)]
################################ 53 ####################################
Vertices:        [1, 4, 9, 10, 7, 8, 5, 6, 2, 3]
Aristas:         [(1,4,32.2), (4,9,40.0), (9,10,25.0), (10,7,14.14), (7,8,12.21), (8,5,13.93), (5,6,10.0), (6,2,16.4), (2,3,34.41)]
Costo asociado:  212.85000000000002
-+-+-+-+-+-+-+-+-+ Lista TABÚ -+-+-+-+-+-+-+-+-+
Lista Tabu: [(5,3), (8,2), (6,4), (6,3), (9,6), (7,5), (3,7), (4,6)]
################################ 54 ####################################
Vertices:        [1, 3, 9, 2, 7, 8, 5, 6, 10, 4]
Aristas:         [(1,3,14.56), (3,9,15.0), (9,2,47.42), (2,7,36.25), (7,8,12.21), (8,5,13.93), (5,6,10.0), (6,10,30.41), (10,4,47.17)]
Costo asociado:  259.15
-+-+-+-+-+-+-+-+-+ Lista TABÚ -+-+-+-+-+-+-+-+-+
Lista Tabu: [(5,2), (8,1), (6,3), (6,2), (9,5), (7,4), (3,6), (4,5), (2,7), (10,6)]
-+-+-+-+-+-+-+-+-+ Lista TABÚ -+-+-+-+-+-+-+-+-+
Lista Tabu: [(5,1), (6,2), (6,1), (9,4), (7,3), (3,5), (4,4), (2,6), (10,5)]
-+-+-+-+-+-+-+-+-+ Lista TABÚ -+-+-+-+-+-+-+-+-+
Lista Tabu: [(6,1), (9,3), (7,2), (3,4), (4,3), (2,5), (10,4)]
################################ 57 ####################################
Vertices:        [1, 3, 9, 10, 7, 5, 8, 6, 2, 4]
Aristas:         [(1,3,14.56), (3,9,15.0), (9,10,25.0), (10,7,14.14), (7,5,20.62), (5,8,13.93), (8,6,19.85), (6,2,16.4), (2,4,20.22)]
Costo asociado:  191.92000000000002
-+-+-+-+-+-+-+-+-+ Lista TABÚ -+-+-+-+-+-+-+-+-+
Lista Tabu: [(9,2), (7,1), (3,3), (4,2), (2,4), (10,3), (8,7), (5,6)]
-+-+-+-+-+-+-+-+-+ Lista TABÚ -+-+-+-+-+-+-+-+-+
Lista Tabu: [(9,1), (3,2), (4,1), (2,3), (10,2), (8,6), (5,5)]
################################ 59 ####################################
Vertices:        [1, 3, 9, 10, 6, 8, 5, 7, 2, 4]
Aristas:         [(1,3,14.56), (3,9,15.0), (9,10,25.0), (10,6,30.41), (6,8,19.85), (8,5,13.93), (5,7,20.62), (7,2,36.25), (2,4,20.22)]
Costo asociado:  228.04000000000002
-+-+-+-+-+-+-+-+-+ Lista TABÚ -+-+-+-+-+-+-+-+-+
Lista Tabu: [(3,1), (2,2), (10,1), (8,5), (5,4), (6,7), (7,6)]
################################ 60 ####################################
Vertices:        [1, 3, 9, 10, 7, 8, 5, 6, 2, 4]
Aristas:         [(1,3,14.56), (3,9,15.0), (9,10,25.0), (10,7,14.14), (7,8,12.21), (8,5,13.93), (5,6,10.0), (6,2,16.4), (2,4,20.22)]
Costo asociado:  173.66000000000003
-+-+-+-+-+-+-+-+-+ Lista TABÚ -+-+-+-+-+-+-+-+-+
Lista Tabu: [(2,1), (8,4), (5,3), (6,6), (7,5), (4,7), (4,6)]
################################ 61 ####################################
Vertices:        [1, 3, 9, 10, 7, 8, 5, 6, 2, 4]
Aristas:         [(1,3,14.56), (3,9,15.0), (9,10,25.0), (10,7,14.14), (7,8,12.21), (8,5,13.93), (5,6,10.0), (6,2,16.4), (2,4,20.22)]
Costo asociado:  173.66000000000003
-+-+-+-+-+-+-+-+-+ Lista TABÚ -+-+-+-+-+-+-+-+-+
Lista Tabu: [(8,3), (5,2), (6,5), (7,4), (4,6), (4,5), (10,7), (10,6)]
################################ 62 ####################################
Vertices:        [1, 9, 3, 10, 7, 8, 5, 6, 2, 4]
Aristas:         [(1,9,17.8), (9,3,15.0), (3,10,29.15), (10,7,14.14), (7,8,12.21), (8,5,13.93), (5,6,10.0), (6,2,16.4), (2,4,20.22)]
Costo asociado:  181.05
-+-+-+-+-+-+-+-+-+ Lista TABÚ -+-+-+-+-+-+-+-+-+
Lista Tabu: [(8,2), (5,1), (6,4), (7,3), (4,5), (4,4), (10,6), (10,5), (9,7), (3,6)]
-+-+-+-+-+-+-+-+-+ Lista TABÚ -+-+-+-+-+-+-+-+-+
Lista Tabu: [(8,1), (6,3), (7,2), (4,4), (4,3), (10,5), (10,4), (9,6), (3,5)]
################################ 64 ####################################
Vertices:        [1, 3, 9, 10, 7, 8, 5, 6, 2, 4]
Aristas:         [(1,3,14.56), (3,9,15.0), (9,10,25.0), (10,7,14.14), (7,8,12.21), (8,5,13.93), (5,6,10.0), (6,2,16.4), (2,4,20.22)]
Costo asociado:  173.66000000000003
-+-+-+-+-+-+-+-+-+ Lista TABÚ -+-+-+-+-+-+-+-+-+
Lista Tabu: [(6,2), (7,1), (4,3), (4,2), (10,4), (10,3), (9,5), (3,4), (5,7), (5,6)]
################################ 65 ####################################
Vertices:        [1, 3, 9, 10, 7, 2, 5, 6, 8, 4]
Aristas:         [(1,3,14.56), (3,9,15.0), (9,10,25.0), (10,7,14.14), (7,2,36.25), (2,5,23.85), (5,6,10.0), (6,8,19.85), (8,4,50.54)]
Costo asociado:  241.39
-+-+-+-+-+-+-+-+-+ Lista TABÚ -+-+-+-+-+-+-+-+-+
Lista Tabu: [(6,1), (4,2), (4,1), (10,3), (10,2), (9,4), (3,3), (5,6), (5,5), (8,7), (2,6)]
-+-+-+-+-+-+-+-+-+ Lista TABÚ -+-+-+-+-+-+-+-+-+
Lista Tabu: [(4,1), (10,2), (10,1), (9,3), (3,2), (5,5), (5,4), (8,6), (2,5)]
################################ 67 ####################################
Vertices:        [1, 3, 9, 10, 7, 8, 5, 6, 2, 4]
Aristas:         [(1,3,14.56), (3,9,15.0), (9,10,25.0), (10,7,14.14), (7,8,12.21), (8,5,13.93), (5,6,10.0), (6,2,16.4), (2,4,20.22)]
Costo asociado:  173.66000000000003
-+-+-+-+-+-+-+-+-+ Lista TABÚ -+-+-+-+-+-+-+-+-+
Lista Tabu: [(10,1), (9,2), (3,1), (5,4), (5,3), (8,5), (2,4), (7,7), (7,6)]
################################ 68 ####################################
Vertices:        [1, 3, 9, 10, 7, 8, 5, 6, 2, 4]
Aristas:         [(1,3,14.56), (3,9,15.0), (9,10,25.0), (10,7,14.14), (7,8,12.21), (8,5,13.93), (5,6,10.0), (6,2,16.4), (2,4,20.22)]
Costo asociado:  173.66000000000003
-+-+-+-+-+-+-+-+-+ Lista TABÚ -+-+-+-+-+-+-+-+-+
Lista Tabu: [(9,1), (5,3), (5,2), (8,4), (2,3), (7,6), (7,5), (6,7), (6,6)]
################################ 69 ####################################
Vertices:        [1, 3, 9, 10, 7, 8, 5, 6, 2, 4]
Aristas:         [(1,3,14.56), (3,9,15.0), (9,10,25.0), (10,7,14.14), (7,8,12.21), (8,5,13.93), (5,6,10.0), (6,2,16.4), (2,4,20.22)]
Costo asociado:  173.66000000000003
-+-+-+-+-+-+-+-+-+ Lista TABÚ -+-+-+-+-+-+-+-+-+
Lista Tabu: [(5,2), (5,1), (8,3), (2,2), (7,5), (7,4), (6,6), (6,5), (4,7), (4,6)]
################################ 70 ####################################
Vertices:        [1, 10, 9, 3, 7, 8, 5, 6, 2, 4]
Aristas:         [(1,10,15.56), (10,9,25.0), (9,3,15.0), (3,7,35.36), (7,8,12.21), (8,5,13.93), (5,6,10.0), (6,2,16.4), (2,4,20.22)]
Costo asociado:  195.88
-+-+-+-+-+-+-+-+-+ Lista TABÚ -+-+-+-+-+-+-+-+-+
Lista Tabu: [(5,1), (8,2), (2,1), (7,4), (7,3), (6,5), (6,4), (4,6), (4,5), (3,7), (10,6)]
-+-+-+-+-+-+-+-+-+ Lista TABÚ -+-+-+-+-+-+-+-+-+
Lista Tabu: [(8,1), (7,3), (7,2), (6,4), (6,3), (4,5), (4,4), (3,6), (10,5)]
################################ 72 ####################################
Vertices:        [1, 3, 9, 10, 7, 8, 5, 6, 2, 4]
Aristas:         [(1,3,14.56), (3,9,15.0), (9,10,25.0), (10,7,14.14), (7,8,12.21), (8,5,13.93), (5,6,10.0), (6,2,16.4), (2,4,20.22)]
Costo asociado:  173.66000000000003
-+-+-+-+-+-+-+-+-+ Lista TABÚ -+-+-+-+-+-+-+-+-+
Lista Tabu: [(7,2), (7,1), (6,3), (6,2), (4,4), (4,3), (3,5), (10,4), (2,7), (2,6)]
################################ 73 ####################################
Vertices:        [1, 3, 9, 10, 7, 8, 5, 6, 2, 4]
Aristas:         [(1,3,14.56), (3,9,15.0), (9,10,25.0), (10,7,14.14), (7,8,12.21), (8,5,13.93), (5,6,10.0), (6,2,16.4), (2,4,20.22)]
Costo asociado:  173.66000000000003
-+-+-+-+-+-+-+-+-+ Lista TABÚ -+-+-+-+-+-+-+-+-+
Lista Tabu: [(7,1), (6,2), (6,1), (4,3), (4,2), (3,4), (10,3), (2,6), (2,5), (8,7), (8,6)]
################################ 74 ####################################
Vertices:        [1, 3, 9, 10, 7, 8, 5, 6, 2, 4]
Aristas:         [(1,3,14.56), (3,9,15.0), (9,10,25.0), (10,7,14.14), (7,8,12.21), (8,5,13.93), (5,6,10.0), (6,2,16.4), (2,4,20.22)]
Costo asociado:  173.66000000000003
-+-+-+-+-+-+-+-+-+ Lista TABÚ -+-+-+-+-+-+-+-+-+
Lista Tabu: [(6,1), (4,2), (4,1), (3,3), (10,2), (2,5), (2,4), (8,6), (8,5), (5,7), (5,6)]
################################ 75 ####################################
Vertices:        [1, 3, 9, 10, 7, 8, 5, 6, 2, 4]
Aristas:         [(1,3,14.56), (3,9,15.0), (9,10,25.0), (10,7,14.14), (7,8,12.21), (8,5,13.93), (5,6,10.0), (6,2,16.4), (2,4,20.22)]
Costo asociado:  173.66000000000003
-+-+-+-+-+-+-+-+-+ Lista TABÚ -+-+-+-+-+-+-+-+-+
Lista Tabu: [(4,1), (3,2), (10,1), (2,4), (2,3), (8,5), (8,4), (5,6), (5,5), (7,7), (7,6)]
################################ 76 ####################################
Vertices:        [1, 3, 6, 10, 7, 8, 5, 9, 2, 4]
Aristas:         [(1,3,14.56), (3,6,33.54), (6,10,30.41), (10,7,14.14), (7,8,12.21), (8,5,13.93), (5,9,50.0), (9,2,47.42), (2,4,20.22)]
Costo asociado:  268.63000000000005
-+-+-+-+-+-+-+-+-+ Lista TABÚ -+-+-+-+-+-+-+-+-+
Lista Tabu: [(3,1), (2,3), (2,2), (8,4), (8,3), (5,5), (5,4), (7,6), (7,5), (9,7), (6,6)]
################################ 77 ####################################
Vertices:        [1, 3, 9, 10, 7, 8, 5, 6, 2, 4]
Aristas:         [(1,3,14.56), (3,9,15.0), (9,10,25.0), (10,7,14.14), (7,8,12.21), (8,5,13.93), (5,6,10.0), (6,2,16.4), (2,4,20.22)]
Costo asociado:  173.66000000000003
-+-+-+-+-+-+-+-+-+ Lista TABÚ -+-+-+-+-+-+-+-+-+
Lista Tabu: [(2,2), (2,1), (8,3), (8,2), (5,4), (5,3), (7,5), (7,4), (9,6), (6,5), (4,7), (4,6)]
################################ 78 ####################################
Vertices:        [1, 3, 9, 10, 7, 8, 5, 6, 2, 4]
Aristas:         [(1,3,14.56), (3,9,15.0), (9,10,25.0), (10,7,14.14), (7,8,12.21), (8,5,13.93), (5,6,10.0), (6,2,16.4), (2,4,20.22)]
Costo asociado:  173.66000000000003
-+-+-+-+-+-+-+-+-+ Lista TABÚ -+-+-+-+-+-+-+-+-+
Lista Tabu: [(2,1), (8,2), (8,1), (5,3), (5,2), (7,4), (7,3), (9,5), (6,4), (4,6), (4,5), (10,7), (10,6)]
-+-+-+-+-+-+-+-+-+ Lista TABÚ -+-+-+-+-+-+-+-+-+
Lista Tabu: [(8,1), (5,2), (5,1), (7,3), (7,2), (9,4), (6,3), (4,5), (4,4), (10,6), (10,5)]
################################ 80 ####################################
Vertices:        [1, 2, 9, 10, 7, 8, 5, 6, 3, 4]
Aristas:         [(1,2,32.56), (2,9,47.42), (9,10,25.0), (10,7,14.14), (7,8,12.21), (8,5,13.93), (5,6,10.0), (6,3,33.54), (3,4,25.0)]
Costo asociado:  246.0
-+-+-+-+-+-+-+-+-+ Lista TABÚ -+-+-+-+-+-+-+-+-+
Lista Tabu: [(5,1), (7,2), (7,1), (9,3), (6,2), (4,4), (4,3), (10,5), (10,4), (2,7), (3,6)]
-+-+-+-+-+-+-+-+-+ Lista TABÚ -+-+-+-+-+-+-+-+-+
Lista Tabu: [(7,1), (9,2), (6,1), (4,3), (4,2), (10,4), (10,3), (2,6), (3,5)]
################################ 82 ####################################
Vertices:        [1, 3, 9, 10, 7, 5, 8, 6, 2, 4]
Aristas:         [(1,3,14.56), (3,9,15.0), (9,10,25.0), (10,7,14.14), (7,5,20.62), (5,8,13.93), (8,6,19.85), (6,2,16.4), (2,4,20.22)]
Costo asociado:  191.92000000000002
-+-+-+-+-+-+-+-+-+ Lista TABÚ -+-+-+-+-+-+-+-+-+
Lista Tabu: [(9,1), (4,2), (4,1), (10,3), (10,2), (2,5), (3,4), (8,7), (5,6)]
################################ 83 ####################################
Vertices:        [1, 3, 9, 10, 7, 8, 5, 6, 2, 4]
Aristas:         [(1,3,14.56), (3,9,15.0), (9,10,25.0), (10,7,14.14), (7,8,12.21), (8,5,13.93), (5,6,10.0), (6,2,16.4), (2,4,20.22)]
Costo asociado:  173.66000000000003
-+-+-+-+-+-+-+-+-+ Lista TABÚ -+-+-+-+-+-+-+-+-+
Lista Tabu: [(4,1), (10,2), (10,1), (2,4), (3,3), (8,6), (5,5), (7,7), (7,6)]
################################ 84 ####################################
Vertices:        [1, 3, 6, 10, 7, 8, 5, 9, 2, 4]
Aristas:         [(1,3,14.56), (3,6,33.54), (6,10,30.41), (10,7,14.14), (7,8,12.21), (8,5,13.93), (5,9,50.0), (9,2,47.42), (2,4,20.22)]
Costo asociado:  268.63000000000005
-+-+-+-+-+-+-+-+-+ Lista TABÚ -+-+-+-+-+-+-+-+-+
Lista Tabu: [(10,1), (2,3), (3,2), (8,5), (5,4), (7,6), (7,5), (9,7), (6,6)]
-+-+-+-+-+-+-+-+-+ Lista TABÚ -+-+-+-+-+-+-+-+-+
Lista Tabu: [(2,2), (3,1), (8,4), (5,3), (7,5), (7,4), (9,6), (6,5)]
################################ 86 ####################################
Vertices:        [1, 3, 9, 10, 7, 8, 5, 6, 2, 4]
Aristas:         [(1,3,14.56), (3,9,15.0), (9,10,25.0), (10,7,14.14), (7,8,12.21), (8,5,13.93), (5,6,10.0), (6,2,16.4), (2,4,20.22)]
Costo asociado:  173.66000000000003
-+-+-+-+-+-+-+-+-+ Lista TABÚ -+-+-+-+-+-+-+-+-+
Lista Tabu: [(2,1), (8,3), (5,2), (7,4), (7,3), (9,5), (6,4), (4,7), (4,6)]
################################ 87 ####################################
Vertices:        [1, 10, 9, 3, 7, 8, 5, 6, 2, 4]
Aristas:         [(1,10,15.56), (10,9,25.0), (9,3,15.0), (3,7,35.36), (7,8,12.21), (8,5,13.93), (5,6,10.0), (6,2,16.4), (2,4,20.22)]
Costo asociado:  195.88
-+-+-+-+-+-+-+-+-+ Lista TABÚ -+-+-+-+-+-+-+-+-+
Lista Tabu: [(8,2), (5,1), (7,3), (7,2), (9,4), (6,3), (4,6), (4,5), (3,7), (10,6)]
-+-+-+-+-+-+-+-+-+ Lista TABÚ -+-+-+-+-+-+-+-+-+
Lista Tabu: [(8,1), (7,2), (7,1), (9,3), (6,2), (4,5), (4,4), (3,6), (10,5)]
################################ 89 ####################################
Vertices:        [1, 3, 9, 10, 7, 8, 5, 6, 2, 4]
Aristas:         [(1,3,14.56), (3,9,15.0), (9,10,25.0), (10,7,14.14), (7,8,12.21), (8,5,13.93), (5,6,10.0), (6,2,16.4), (2,4,20.22)]
Costo asociado:  173.66000000000003
-+-+-+-+-+-+-+-+-+ Lista TABÚ -+-+-+-+-+-+-+-+-+
Lista Tabu: [(7,1), (9,2), (6,1), (4,4), (4,3), (3,5), (10,4), (5,7), (5,6)]
################################ 90 ####################################
Vertices:        [1, 3, 9, 10, 7, 8, 5, 6, 2, 4]
Aristas:         [(1,3,14.56), (3,9,15.0), (9,10,25.0), (10,7,14.14), (7,8,12.21), (8,5,13.93), (5,6,10.0), (6,2,16.4), (2,4,20.22)]
Costo asociado:  173.66000000000003
-+-+-+-+-+-+-+-+-+ Lista TABÚ -+-+-+-+-+-+-+-+-+
Lista Tabu: [(9,1), (4,3), (4,2), (3,4), (10,3), (5,6), (5,5), (2,7), (2,6)]
################################ 91 ####################################
Vertices:        [1, 3, 9, 10, 7, 6, 5, 8, 2, 4]
Aristas:         [(1,3,14.56), (3,9,15.0), (9,10,25.0), (10,7,14.14), (7,6,20.62), (6,5,10.0), (5,8,13.93), (8,2,36.07), (2,4,20.22)]
Costo asociado:  201.74
-+-+-+-+-+-+-+-+-+ Lista TABÚ -+-+-+-+-+-+-+-+-+
Lista Tabu: [(4,2), (4,1), (3,3), (10,2), (5,5), (5,4), (2,6), (2,5), (6,7), (8,6)]
################################ 92 ####################################
Vertices:        [1, 3, 7, 10, 9, 8, 5, 6, 2, 4]
Aristas:         [(1,3,14.56), (3,7,35.36), (7,10,14.14), (10,9,25.0), (9,8,48.1), (8,5,13.93), (5,6,10.0), (6,2,16.4), (2,4,20.22)]
Costo asociado:  229.91000000000003
-+-+-+-+-+-+-+-+-+ Lista TABÚ -+-+-+-+-+-+-+-+-+
Lista Tabu: [(4,1), (3,2), (10,1), (5,4), (5,3), (2,5), (2,4), (6,6), (8,5), (9,7), (7,6)]
-+-+-+-+-+-+-+-+-+ Lista TABÚ -+-+-+-+-+-+-+-+-+
Lista Tabu: [(3,1), (5,3), (5,2), (2,4), (2,3), (6,5), (8,4), (9,6), (7,5)]
################################ 94 ####################################
Vertices:        [1, 3, 9, 4, 7, 8, 5, 6, 2, 10]
Aristas:         [(1,3,14.56), (3,9,15.0), (9,4,40.0), (4,7,46.1), (7,8,12.21), (8,5,13.93), (5,6,10.0), (6,2,16.4), (2,10,43.29)]
Costo asociado:  227.05
-+-+-+-+-+-+-+-+-+ Lista TABÚ -+-+-+-+-+-+-+-+-+
Lista Tabu: [(5,2), (5,1), (2,3), (2,2), (6,4), (8,3), (9,5), (7,4), (10,7), (4,6)]
-+-+-+-+-+-+-+-+-+ Lista TABÚ -+-+-+-+-+-+-+-+-+
Lista Tabu: [(5,1), (2,2), (2,1), (6,3), (8,2), (9,4), (7,3), (10,6), (4,5)]
-+-+-+-+-+-+-+-+-+ Lista TABÚ -+-+-+-+-+-+-+-+-+
Lista Tabu: [(2,1), (6,2), (8,1), (9,3), (7,2), (10,5), (4,4)]
################################ 97 ####################################
Vertices:        [1, 5, 9, 10, 7, 8, 3, 6, 2, 4]
Aristas:         [(1,5,32.2), (5,9,50.0), (9,10,25.0), (10,7,14.14), (7,8,12.21), (8,3,45.04), (3,6,33.54), (6,2,16.4), (2,4,20.22)]
Costo asociado:  280.95
-+-+-+-+-+-+-+-+-+ Lista TABÚ -+-+-+-+-+-+-+-+-+
Lista Tabu: [(6,1), (9,2), (7,1), (10,4), (4,3), (5,7), (3,6)]
################################ 98 ####################################
Vertices:        [1, 3, 9, 10, 7, 8, 5, 6, 2, 4]
Aristas:         [(1,3,14.56), (3,9,15.0), (9,10,25.0), (10,7,14.14), (7,8,12.21), (8,5,13.93), (5,6,10.0), (6,2,16.4), (2,4,20.22)]
Costo asociado:  173.66000000000003
-+-+-+-+-+-+-+-+-+ Lista TABÚ -+-+-+-+-+-+-+-+-+
Lista Tabu: [(9,1), (10,3), (4,2), (5,6), (3,5), (2,7), (2,6)]
################################ 99 ####################################
Vertices:        [1, 3, 9, 10, 8, 7, 5, 6, 2, 4]
Aristas:         [(1,3,14.56), (3,9,15.0), (9,10,25.0), (10,8,26.25), (8,7,12.21), (7,5,20.62), (5,6,10.0), (6,2,16.4), (2,4,20.22)]
Costo asociado:  192.46000000000004
-+-+-+-+-+-+-+-+-+ Lista TABÚ -+-+-+-+-+-+-+-+-+
Lista Tabu: [(10,2), (4,1), (5,5), (3,4), (2,6), (2,5), (7,7), (8,6)]
################################ 100 ####################################
Vertices:        [1, 3, 9, 10, 7, 8, 5, 6, 2, 4]
Aristas:         [(1,3,14.56), (3,9,15.0), (9,10,25.0), (10,7,14.14), (7,8,12.21), (8,5,13.93), (5,6,10.0), (6,2,16.4), (2,4,20.22)]
Costo asociado:  173.66000000000003
-+-+-+-+-+-+-+-+-+ Lista TABÚ -+-+-+-+-+-+-+-+-+
Lista Tabu: [(10,1), (5,4), (3,3), (2,5), (2,4), (7,6), (8,5), (6,7), (6,6)]

################################ Solucion Optima ####################################
Vertices:        [1, 3, 9, 10, 7, 8, 5, 6, 2, 4]
Aristas:         [(1,3,14.56), (3,9,15.0), (9,10,25.0), (10,7,14.14), (7,8,12.21), (8,5,13.93), (5,6,10.0), (6,2,16.4), (2,4,20.22)]
Costo asociado:  173.66000000000003

Nro Intercambios: 6           Maximas Iteraciones: 100
Tenure ADD: 7           Tenure DROP: 6
Tiempo total: 0min 0seg
